SDVRP instances/custom_instances/p01_16_split0.vrp
NAME:p01_16_split
BEST_KNOWN: 0
COMMENT: 0
DIMENSION: 214
CAPACITY: 160
EDGE_WEIGHT_FORMAT: FUNCTION
EDGE_WEIGHT_TYPE: EXACT_2D
NODE_COORD_SECTION
1 0.00000 0.00000
2 -48 -34
3 -48 -34
4 -48 -34
5 -48 -34
6 24 44
7 24 44
8 24 44
9 24 44
10 24 44
11 39 -34
12 39 -34
13 39 -34
14 39 -34
15 -10 -25
16 -10 -25
17 -10 -25
18 33 0
19 33 0
20 33 0
21 33 0
22 -3 38
23 -3 38
24 -3 38
25 -3 38
26 -3 38
27 -21 -30
28 -21 -30
29 -21 -30
30 -9 8
31 -9 8
32 -9 8
33 -9 8
34 -9 8
35 29 22
36 29 22
37 29 22
38 29 22
39 29 22
40 29 22
41 32 -13
42 32 -13
43 32 -13
44 32 -13
45 32 -13
46 18 -8
47 18 -8
48 18 -8
49 31 1
50 31 1
51 31 1
52 -13 -39
53 -13 -39
54 -13 -39
55 -20 -36
56 -20 -36
57 -20 -36
58 34 -1
59 34 -1
60 34 -1
61 -43 9
62 -43 9
63 -43 9
64 -43 9
65 -43 9
66 -43 9
67 -43 9
68 -16 27
69 -16 27
70 -16 27
71 -28 16
72 -28 16
73 -28 16
74 -28 16
75 -28 16
76 -28 16
77 34 9
78 34 9
79 34 9
80 8 -24
81 8 -24
82 8 -24
83 -24 -4
84 -24 -4
85 -24 -4
86 -46 -15
87 -46 -15
88 -46 -15
89 -46 -15
90 -46 -15
91 37 26
92 37 26
93 37 26
94 37 26
95 37 26
96 -6 15
97 -6 15
98 -6 15
99 -6 15
100 1 29
101 1 29
102 1 29
103 1 29
104 1 29
105 1 -47
106 1 -47
107 1 -47
108 1 -47
109 -23 -40
110 -23 -40
111 -23 -40
112 29 -4
113 29 -4
114 29 -4
115 29 -4
116 29 -4
117 29 -4
118 -1 44
119 -1 44
120 -1 44
121 -1 44
122 -1 44
123 -1 44
124 22 42
125 22 42
126 22 42
127 22 42
128 -45 48
129 -45 48
130 -45 48
131 -45 48
132 -45 48
133 -25 -38
134 -25 -38
135 -25 -38
136 -25 -38
137 46 -41
138 46 -41
139 46 -41
140 46 -41
141 27 -37
142 27 -37
143 27 -37
144 27 -37
145 27 -37
146 26 12
147 26 12
148 26 12
149 -44 48
150 -44 48
151 -44 48
152 -8 -22
153 -8 -22
154 -8 -22
155 -8 -22
156 -8 -22
157 -8 -22
158 23 -28
159 23 -28
160 23 -28
161 23 -28
162 41 -39
163 41 -39
164 41 -39
165 41 -39
166 41 -39
167 -3 -40
168 -3 -40
169 -3 -40
170 20 48
171 20 48
172 20 48
173 44 -21
174 44 -21
175 44 -21
176 41 -29
177 41 -29
178 41 -29
179 41 -29
180 41 -29
181 41 -29
182 -47 -14
183 -47 -14
184 -47 -14
185 -47 -14
186 38 -38
187 38 -38
188 38 -38
189 38 -38
190 38 -38
191 1 -39
192 1 -39
193 1 -39
194 46 -44
195 46 -44
196 46 -44
197 46 -44
198 46 -44
199 46 -44
200 -22 41
201 -22 41
202 -22 41
203 -22 41
204 -22 41
205 -11 -47
206 -11 -47
207 -11 -47
208 -11 -47
209 -11 -47
210 27 -27
211 27 -27
212 27 -27
213 27 -27
214 27 -27
DEMAND_SECTION
1 0
2 32
3 16
4 8
5 1
6 32
7 8
8 2
9 2
10 2
11 32
12 32
13 2
14 1
15 32
16 16
17 1
18 32
19 2
20 2
21 2
22 32
23 8
24 2
25 2
26 2
27 32
28 8
29 2
30 32
31 16
32 2
33 2
34 1
35 32
36 8
37 2
38 2
39 2
40 1
41 32
42 16
43 2
44 2
45 2
46 32
47 32
48 8
49 32
50 32
51 1
52 16
53 8
54 2
55 32
56 16
57 1
58 32
59 32
60 16
61 32
62 16
63 8
64 2
65 2
66 2
67 1
68 32
69 16
70 1
71 32
72 16
73 8
74 2
75 2
76 1
77 16
78 8
79 1
80 32
81 16
82 8
83 32
84 2
85 1
86 16
87 8
88 2
89 2
90 2
91 32
92 32
93 2
94 2
95 2
96 32
97 2
98 2
99 2
100 32
101 16
102 8
103 2
104 2
105 32
106 8
107 2
108 2
109 32
110 32
111 2
112 32
113 32
114 8
115 2
116 2
117 1
118 32
119 32
120 8
121 2
122 2
123 2
124 32
125 2
126 2
127 2
128 32
129 2
130 2
131 2
132 1
133 32
134 16
135 8
136 2
137 32
138 8
139 2
140 2
141 32
142 16
143 8
144 2
145 2
146 32
147 16
148 2
149 32
150 16
151 8
152 32
153 8
154 2
155 2
156 2
157 1
158 32
159 32
160 8
161 2
162 32
163 16
164 2
165 2
166 2
167 32
168 32
169 8
170 32
171 32
172 16
173 32
174 16
175 8
176 32
177 16
178 2
179 2
180 2
181 1
182 32
183 32
184 8
185 2
186 32
187 32
188 8
189 2
190 2
191 32
192 32
193 2
194 32
195 32
196 8
197 2
198 2
199 2
200 32
201 16
202 8
203 2
204 2
205 32
206 16
207 2
208 2
209 1
210 16
211 8
212 2
213 2
214 1
DEPOT_SECTION
1
-1
EOF