SDVRP instances/custom_instances/p01_16_split0.sol
213 -3 4 1 2 134 135 133 132 26 27 28 -29 31 72 73 71 70 75 74 62 60 64 65 61 63 66 -32 30 33 68 69 67 102 103 100 99 101 -42 41 44 40 43 172 173 174 47 45 -46 157 159 158 80 79 81 -50 49 48 17 20 18 19 78 77 76 146 147 -52 51 53 205 206 204 207 208 104 106 107 105 192 190 -58 59 57 114 112 111 116 115 113 -83 84 82 181 182 183 184 87 86 89 85 88 -97 96 203 201 199 200 202 148 150 149 127 131 128 129 130 -98 95 23 24 25 22 21 121 118 119 120 117 122 -108 110 109 56 55 54 14 16 153 152 155 -123 126 6 7 9 5 8 171 169 170 -124 125 93 94 92 90 91 35 36 34 38 39 37 145 -137 136 138 139 196 198 195 193 194 197 189 186 211 -156 151 154 15 166 168 167 191 -160 144 140 141 143 142 188 187 185 164 162 165 163 161 -178 176 180 179 175 177 11 10 13 12 209 210 212 213 0 





OBJ=
1818.507
BEST_KNOWN=
0.000